Set parameter TSPort to value 51199
Set parameter TokenServer to value "open-license1.lanl.gov"
Set parameter TimeLimit to value 512
Set parameter Threads to value 1
Gurobi Optimizer version 10.0.3 build v10.0.3rc0 (linux64)

CPU model: Intel(R) Xeon(R) CPU E5-2695 v4 @ 2.10GHz, instruction set [SSE2|AVX|AVX2]
Thread count: 36 physical cores, 72 logical processors, using up to 1 threads

Optimize a model with 0 rows, 598 columns and 0 nonzeros
Model fingerprint: 0x381b11d0
Model has 2589 quadratic objective terms
Variable types: 0 continuous, 598 integer (598 binary)
Coefficient statistics:
  Matrix range     [0e+00, 0e+00]
  Objective range  [2e+00, 3e+01]
  QObjective range [8e+00, 8e+00]
  Bounds range     [1e+00, 1e+00]
  RHS range        [0e+00, 0e+00]
Found heuristic solution: objective 0.0000000
Found heuristic solution: objective -1012.000000
Found heuristic solution: objective -3594.000000
Found heuristic solution: objective -3608.000000
Presolve removed 0 rows and 1 columns
Presolve time: 0.24s
Presolved: 2586 rows, 3183 columns, 7758 nonzeros
Variable types: 0 continuous, 3183 integer (3183 binary)

Root relaxation: objective -4.912000e+03, 695 iterations, 0.01 seconds (0.01 work units)

    Nodes    |    Current Node    |     Objective Bounds      |     Work
 Expl Unexpl |  Obj  Depth IntInf | Incumbent    BestBd   Gap | It/Node Time

     0     0 -4912.0000    0  597 -3608.0000 -4912.0000  36.1%     -    0s
     0     0 -4489.0000    0  818 -3608.0000 -4489.0000  24.4%     -    0s
     0     0 -4488.0000    0  820 -3608.0000 -4488.0000  24.4%     -    0s
     0     0 -4409.2500    0  881 -3608.0000 -4409.2500  22.2%     -    0s
     0     0 -4409.2500    0  873 -3608.0000 -4409.2500  22.2%     -    1s
     0     2 -4409.2500    0  873 -3608.0000 -4409.2500  22.2%     -    1s
   513   491 -3665.5000  126  597 -3608.0000 -4395.0000  21.8%  83.1    5s
   533   505 -4048.0543   14 1713 -3608.0000 -4048.0543  12.2%  80.0   10s
   544   512 -3724.5000  109 2046 -3608.0000 -3993.0590  10.7%  78.3   15s
   552   517 -3953.3028    5 2251 -3608.0000 -3953.3028  9.57%  77.2   20s
   560   523 -3646.0000  133 2471 -3608.0000 -3925.2211  8.79%  76.1   26s
   568   528 -3905.1965   45 2594 -3608.0000 -3905.1965  8.24%  75.0   32s
   572   531 -3900.4294    4 2642 -3608.0000 -3900.4294  8.11%  74.5   35s
   576   533 -3880.5000   73 2685 -3608.0000 -3885.7007  7.70%  74.0   40s
   584   539 -3806.5000   81 2708 -3608.0000 -3875.6521  7.42%  73.0   45s
   593   545 -3787.0000   85 2733 -3608.0000 -3870.7319  7.28%  71.9   50s
   604   552 -3796.5000   92 2769 -3608.0000 -3864.4318  7.11%  70.6   55s
   614   559 -3817.5000   79 2796 -3608.0000 -3860.2652  6.99%  69.4   60s
   627   567 -3855.8013   71 2786 -3608.0000 -3855.8013  6.87%  68.0   65s
   639   575 -3733.5000  108 2843 -3608.0000 -3851.5709  6.75%  66.7   70s
   653   585 -3755.5000   92 2817 -3608.0000 -3847.3074  6.63%  65.3   75s
   666   593 -3843.7139    8 2862 -3608.0000 -3843.7139  6.53%  64.0   80s
   681   603 -3640.0000  134 2859 -3608.0000 -3839.6498  6.42%  62.6   85s
   701   617 -3836.7749    6 2880 -3608.0000 -3836.7749  6.34%  60.8   90s
   718   630 -3836.0177   36 2507 -3608.0000 -3836.0177  6.32%   325   99s
   719   630 -3836.0177   58 2760 -3608.0000 -3836.0177  6.32%   325  105s
   723   633 -3836.0177   40 2845 -3608.0000 -3836.0177  6.32%   323  110s
   739   644 -3733.5000  108 2880 -3608.0000 -3833.0937  6.24%   316  115s
   752   652 -3829.7110    5 2873 -3608.0000 -3829.7110  6.14%   310  120s
   764   660 -3653.0000  129 2880 -3608.0000 -3827.6425  6.09%   305  125s
   778   670 -3825.4795   36 2895 -3608.0000 -3825.4795  6.03%   300  130s
   791   678 -3823.9020   80 2918 -3608.0000 -3823.9020  5.98%   295  135s
   814   694 -3817.5000   79 2916 -3608.0000 -3822.5188  5.95%   287  140s
   834   707 -3744.1667   95 2921 -3608.0000 -3821.2610  5.91%   280  145s
   856   722 -3820.5655   52 2952 -3608.0000 -3820.5655  5.89%   273  150s
   876   735 -3819.1799   73 2931 -3608.0000 -3819.1799  5.85%   266  155s
   897   749 -3818.1562   66 2950 -3608.0000 -3818.1562  5.82%   260  160s
   910   758 -3817.7686   61 2934 -3608.0000 -3817.7686  5.81%   256  170s
   913   762 -3813.6664   26 2848 -3608.0000 -3815.0199  5.74%   401  176s
   916   764 -3809.8287   27 2802 -3608.0000 -3814.3063  5.72%   410  180s
   920   766 -3805.9179   29 2764 -3608.0000 -3814.3063  5.72%   424  186s
   923   768 -3801.9407   31 2717 -3608.0000 -3814.3063  5.72%   434  190s
   927   771 -3798.2293   33 2678 -3608.0000 -3814.3063  5.72%   445  195s
   931   774 -3793.8321   35 2629 -3608.0000 -3814.3063  5.72%   456  200s
   935   776 -3789.7534   37 2585 -3608.0000 -3814.3063  5.72%   467  205s
   940   780 -3785.5760   39 2544 -3608.0000 -3814.3063  5.72%   480  211s
   943   782 -3781.2501   41 2508 -3608.0000 -3814.3063  5.72%   486  215s
   950   786 -3772.2432   44 2463 -3608.0000 -3814.3063  5.72%   499  220s
   957   791 -3766.7141   48 2421 -3608.0000 -3814.3063  5.72%   509  225s
   964   796 -3760.5513   51 2381 -3608.0000 -3814.3063  5.72%   518  230s
   973   802 -3755.7826   56 2320 -3608.0000 -3814.3063  5.72%   529  235s
   983   808 -3748.6541   61 2246 -3608.0000 -3814.3063  5.72%   539  240s
   991   814 -3735.8419   65 2205 -3608.0000 -3814.3063  5.72%   551  245s
  1002   821 -3732.2502   70 2157 -3608.0000 -3814.3063  5.72%   556  250s
  1019   832 -3717.4439   79 2088 -3608.0000 -3814.3063  5.72%   562  255s
  1042   848 -3704.2423   90 2014 -3608.0000 -3814.3063  5.72%   565  260s
  1066   864 -3678.4041  102 1955 -3608.0000 -3814.3063  5.72%   569  265s
  1093   882 -3656.8390  116 1873 -3608.0000 -3814.3063  5.72%   571  270s
  1131   907 -3621.3610  135 1702 -3608.0000 -3814.3063  5.72%   570  275s
H 1158   847                    -3626.000000 -3814.3063  5.19%   563  276s
  1162   846 -3807.8617   27 2826 -3626.0000 -3814.3008  5.19%   567  281s
  1164   847 -3803.2498   28 2798 -3626.0000 -3814.3008  5.19%   573  285s
  1168   850 -3798.4434   30 2773 -3626.0000 -3814.3008  5.19%   581  290s
  1172   852 -3794.8798   32 2714 -3626.0000 -3814.3008  5.19%   589  295s
  1175   854 -3791.7447   33 2678 -3626.0000 -3814.3008  5.19%   596  300s
  1179   857 -3787.2295   35 2634 -3626.0000 -3814.3008  5.19%   604  305s
  1185   861 -3779.1377   38 2578 -3626.0000 -3814.3008  5.19%   614  311s
  1190   864 -3775.1561   41 2532 -3626.0000 -3814.3008  5.19%   620  315s
  1196   868 -3768.4898   44 2494 -3626.0000 -3814.3008  5.19%   628  320s
  1203   873 -3760.8963   47 2438 -3626.0000 -3814.3008  5.19%   635  325s
  1208   876 -3752.8584   50 2413 -3626.0000 -3814.3008  5.19%   644  330s
  1217   882 -3743.7989   54 2345 -3626.0000 -3814.3008  5.19%   651  335s
  1227   889 -3736.9772   59 2337 -3626.0000 -3814.3008  5.19%   657  340s
  1237   896 -3732.2201   64 2269 -3626.0000 -3814.3008  5.19%   662  345s
  1252   906 -3716.3772   72 2181 -3626.0000 -3814.3008  5.19%   668  350s
  1267   916 -3704.2989   79 2138 -3626.0000 -3814.3008  5.19%   673  355s
  1285   928 -3690.5504   88 2075 -3626.0000 -3814.3008  5.19%   675  360s
  1306   942 -3674.4618   99 1874 -3626.0000 -3814.3008  5.19%   679  365s
  1337   962 -3663.9038  114 1790 -3626.0000 -3814.3008  5.19%   679  370s
H 1343   923                    -3628.000000 -3814.3008  5.14%   677  371s
  1383   952 -3643.9200  137 1339 -3628.0000 -3814.3008  5.14%   673  375s
  1428   961 -3809.0657   26 2863 -3628.0000 -3813.2252  5.11%   662  380s
H 1430   915                    -3630.000000 -3813.2252  5.05%   664  383s
  1431   918 -3801.7799   28 2811 -3630.0000 -3813.2252  5.05%   669  385s
  1434   920 -3798.8895   29 2787 -3630.0000 -3813.2252  5.05%   674  390s
  1438   923 -3794.0911   31 2714 -3630.0000 -3813.2252  5.05%   680  395s
  1443   926 -3787.5843   34 2678 -3630.0000 -3813.2252  5.05%   686  400s
  1448   929 -3782.3744   36 2619 -3630.0000 -3813.2252  5.05%   692  405s
  1453   933 -3775.2056   39 2533 -3630.0000 -3813.2252  5.05%   697  410s
  1458   936 -3769.0462   41 2498 -3630.0000 -3813.2252  5.05%   704  415s
  1463   939 -3762.1289   44 2461 -3630.0000 -3813.2252  5.05%   708  420s
  1470   944 -3753.2000   47 2398 -3630.0000 -3813.2252  5.05%   715  425s
  1476   948 -3747.0581   50 2360 -3630.0000 -3813.2252  5.05%   720  430s
  1484   953 -3736.9757   54 2339 -3630.0000 -3813.2252  5.05%   726  435s
  1494   960 -3728.1850   59 2284 -3630.0000 -3813.2252  5.05%   730  440s
  1503   966 -3719.4181   64 2191 -3630.0000 -3813.2252  5.05%   735  445s
  1517   975 -3709.8353   71 2148 -3630.0000 -3813.2252  5.05%   738  450s
  1535   987 -3697.0332   80 2077 -3630.0000 -3813.2252  5.05%   740  455s
  1556  1001 -3681.1855   90 1987 -3630.0000 -3813.2252  5.05%   741  460s
  1578  1016 -3666.1237  101 1864 -3630.0000 -3813.2252  5.05%   743  465s
  1607  1035 -3655.7008  116 1777 -3630.0000 -3813.2252  5.05%   741  470s
  1644  1058 -3635.8208  134 1731 -3630.0000 -3813.2252  5.05%   737  475s
  1666  1059 -3807.6864   28 2806 -3630.0000 -3812.9994  5.04%   735  480s
  1669  1061 -3805.4053   29 2799 -3630.0000 -3812.9994  5.04%   739  485s
  1672  1063 -3802.4907   30 2755 -3630.0000 -3812.9994  5.04%   745  490s
  1675  1065 -3801.6766   30 2752 -3630.0000 -3812.9994  5.04%   749  495s
  1679  1067 -3795.1230   32 2704 -3630.0000 -3812.9994  5.04%   755  500s
  1682  1069 -3793.4826   32 2700 -3630.0000 -3812.9994  5.04%   759  505s
  1686  1072 -3790.2737   34 2678 -3630.0000 -3812.9994  5.04%   765  510s

Cutting planes:
  Gomory: 18
  MIR: 102
  Flow cover: 1247
  Zero half: 418
  Mod-K: 3
  RLT: 126
  BQP: 182

Explored 1687 nodes (1294468 simplex iterations) in 512.00 seconds (598.42 work units)
Thread count was 1 (of 72 available processors)

Solution count 7: -3630 -3628 -3626 ... 0

Time limit reached
Best objective -3.630000000000e+03, best bound -3.812000000000e+03, gap 5.0138%

User-callback calls 24809, time in user-callback 0.12 sec

BQP_SOLUTION, 598, 2589, -1305.000000, 512.000490, -1, 1, 1, 1, -1, 1, -1, 1, 1, 1, -1, 1, 1, -1, 1, 1, 1, 1, 1, -1, 1, 1, 1, 1, 1, 1, 1, 1, 1, 1, -1, 1, -1, 1, 1, 1, -1, 1, 1, 1, 1, -1, -1, 1, 1, 1, -1, 1, 1, 1, 1, 1, 1, -1, 1, 1, 1, -1, 1, 1, 1, 1, -1, 1, 1, 1, 1, 1, 1, 1, 1, 1, -1, 1, -1, 1, 1, -1, 1, 1, 1, 1, -1, 1, -1, 1, 1, 1, 1, 1, 1, 1, 1, 1, -1, -1, 1, 1, -1, 1, -1, 1, 1, -1, 1, -1, 1, 1, -1, -1, -1, 1, 1, 1, 1, -1, 1, 1, 1, -1, -1, 1, 1, -1, 1, -1, 1, -1, -1, 1, -1, 1, 1, -1, -1, -1, 1, 1, 1, 1, -1, 1, 1, -1, 1, -1, 1, 1, -1, -1, -1, 1, -1, 1, -1, -1, -1, 1, -1, -1, -1, 1, -1, -1, 1, -1, 1, -1, 1, 1, -1, 1, 1, 1, -1, -1, 1, -1, -1, -1, -1, -1, 1, -1, -1, 1, -1, 1, -1, -1, 1, -1, 1, 1, -1, 1, -1, 1, -1, -1, 1, 1, 1, 1, -1, -1, 1, 1, 1, -1, -1, 1, -1, 1, -1, 1, -1, -1, 1, 1, 1, 1, -1, 1, -1, 1, 1, 1, 1, -1, 1, 1, -1, 1, 1, -1, 1, 1, 1, -1, -1, 1, -1, 1, 1, -1, 1, 1, 1, 1, -1, 1, 1, 1, 1, -1, 1, -1, 1, 1, 1, -1, -1, 1, 1, 1, 1, -1, 1, 1, 1, -1, -1, 1, 1, -1, -1, 1, 1, 1, -1, -1, 1, 1, -1, 1, -1, 1, -1, 1, 1, -1, 1, -1, -1, -1, -1, 1, 1, -1, 1, 1, -1, 1, -1, 1, -1, 1, 1, -1, 1, 1, -1, -1, -1, 1, 1, 1, 1, -1, 1, 1, 1, -1, -1, 1, 1, -1, 1, -1, 1, -1, -1, 1, 1, 1, 1, 1, 1, -1, 1, 1, -1, 1, -1, 1, 1, -1, 1, -1, 1, -1, 1, 1, -1, 1, 1, 1, -1, 1, 1, -1, 1, 1, -1, 1, -1, 1, -1, -1, -1, 1, 1, 1, -1, -1, 1, 1, -1, -1, 1, -1, 1, -1, -1, 1, 1, -1, -1, -1, -1, -1, 1, -1, -1, -1, 1, 1, -1, 1, -1, 1, 1, -1, -1, -1, 1, 1, -1, -1, -1, -1, 1, 1, -1, 1, -1, 1, -1, -1, -1, 1, 1, -1, -1, -1, 1, 1, 1, -1, 1, -1, 1, 1, -1, -1, -1, 1, -1, 1, -1, 1, 1, 1, -1, -1, -1, 1, -1, -1, 1, -1, -1, -1, 1, -1, -1, 1, -1, 1, -1, 1, -1, -1, -1, 1, 1, 1, -1, 1, 1, 1, -1, -1, -1, 1, 1, 1, 1, 1, 1, -1, -1, -1, 1, 1, 1, -1, -1, 1, -1, 1, -1, -1, 1, -1, 1, -1, 1, -1, 1, -1, -1, -1, 1, 1, -1, 1, -1, -1, 1, -1, 1, -1, 1, -1, 1, -1, 1, -1, 1, -1, 1, -1, 1, 1, -1, 1, -1, -1, 1, -1, -1, -1, -1, 1, -1, 1, -1, 1, 1, -1, 1, -1, 1, -1, -1, 1, -1, -1, 1, -1, -1, 1, 1, 1, -1, -1, -1, -1, 1, -1, 1, -1, 1, 1, -1, -1, -1, 1, 1, -1, -1, 1, -1, 1, -1, -1, -1, 1, -1, 1, -1, -1, 1, -1, 1, -1, 1, 1, 1, 1, -1, -1, 1, -1, 1, -1
BQP_DATA, 598, 2589, -1305.000000, -1487.000000, -3630.000000, -3812.000000, 512.000490, 1788, 1687
